sat
(:added-eqs                       188
 :arith-eq-adapter                12
 :arith-bound-propagations-lp     6
 :arith-conflicts                 24
 :arith-diseq                     12
 :arith-fixed-eqs                 5
 :arith-gcd-calls                 1
 :arith-grobner-calls             9
 :arith-grobner-conflicts         2
 :arith-horner-calls              1
 :arith-horner-cross-nested-forms 207
 :arith-lower                     55
 :arith-make-feasible             57
 :arith-max-columns               569
 :arith-max-rows                  226
 :arith-nla-add-bounds            4
 :arith-nla-lemmas                18
 :arith-nla-propagate-bounds      6
 :arith-nla-propagate-eq          174
 :arith-nra-calls                 1
 :arith-offset-eqs                3
 :arith-patches                   1
 :arith-patches-success           1
 :arith-upper                     90
 :binary-propagations             239
 :conflicts                       1
 :decisions                       135
 :final-checks                    15
 :max-memory                      20.15
 :memory                          17.71
 :mk-bool-var                     269
 :mk-clause                       56
 :mk-clause-binary                624
 :nlsat-conflicts                 101
 :nlsat-decisions                 2
 :nlsat-propagations              1373
 :nlsat-stages                    1163
 :num-allocs                      2016373
 :num-checks                      1
 :propagations                    253
 :rlimit-count                    45260
 :solve-eqs-elim-vars             44
 :solve-eqs-steps                 812
 :time                            0.02
 :total-time                      0.03)
